p cnf 444 64
213 0
234 0
323 0
342 0
-211 0
-212 0
-214 0
-231 0
-232 0
-233 0
-321 0
-322 0
-324 0
-341 0
-343 0
-344 0
-113 0
-123 0
-223 0
-134 0
-144 0
-244 0
-313 0
-413 0
-423 0
-332 0
-432 0
-442 0
-243 0
-224 0
-312 0
-333 0
-334 0
-434 0
-142 0
-242 0
241 0
331 0
132 0
444 0
222 0
314 0
-131 0
-133 0
-221 0
-311 0
-441 0
-443 0
-112 0
-122 0
-141 0
-414 0
-424 0
-431 0
-114 0
-422 0
111 0
143 0
421 0
433 0
124 0
412 0
-121 0
-411 0